(set-logic QF_NRA)
(set-info :source |Benchmarks generated from hycomp (https://es-static.fbk.eu/tools/hycomp/). BMC instances of non-linear hybrid automata taken from: Alessandro Cimatti, Sergio Mover, Stefano Tonetta, A quantifier-free SMT encoding of non-linear hybrid automata, FMCAD 2012 and Alessandro Cimatti, Sergio Mover, Stefano Tonetta, Quantier-free encoding of invariants for Hybrid Systems, Formal Methods in System Design. This instance solves a BMC problem of depth 3 and uses the quantifier free encoding with lemmas encoding. Contacts: Sergio Mover (mover@fbk.eu), Stefano Tonetta (tonettas@fbk.eu), Alessandro Cimatti (cimatti@fbk.eu).|)
(set-info :smt-lib-version 2.0)
(set-info :category "industrial")
(set-info :status unsat)
;; MathSAT API call trace
;; generated on Mon Mar 19 10:42:33 2012
(declare-fun b.y__AT3 () Real)
(declare-fun b.counter.0__AT3 () Bool)
(declare-fun b.counter.1__AT3 () Bool)
(declare-fun b.y__AT0 () Real)
(declare-fun b.x__AT3 () Real)
(declare-fun b.counter.2__AT3 () Bool)
(declare-fun b.counter.0__AT0 () Bool)
(declare-fun b.event_is_timed__AT2 () Bool)
(declare-fun b.EVENT.0__AT0 () Bool)
(declare-fun b.EVENT.1__AT3 () Bool)
(declare-fun b.counter.3__AT0 () Bool)
(declare-fun b.counter.3__AT3 () Bool)
(declare-fun b.counter.1__AT0 () Bool)
(declare-fun b.event_is_timed__AT1 () Bool)
(declare-fun b.bool_atom__AT1 () Bool)
(declare-fun b.bool_atom__AT3 () Bool)
(declare-fun b.bool_atom__AT2 () Bool)
(declare-fun b.y__AT2 () Real)
(declare-fun b.speed_y__AT3 () Real)
(declare-fun b.time__AT2 () Real)
(declare-fun b.delta__AT2 () Real)
(declare-fun b.g__AT0 () Real)
(declare-fun b.speed_y__AT0 () Real)
(declare-fun b.x__AT2 () Real)
(declare-fun b.EVENT.0__AT2 () Bool)
(declare-fun b.x__AT1 () Real)
(declare-fun b.EVENT.1__AT2 () Bool)
(declare-fun b.y__AT1 () Real)
(declare-fun b.counter.2__AT0 () Bool)
(declare-fun b.counter.0__AT1 () Bool)
(declare-fun b.counter.1__AT1 () Bool)
(declare-fun b.counter.2__AT1 () Bool)
(declare-fun b.speed_y__AT2 () Real)
(declare-fun b.event_is_timed__AT0 () Bool)
(declare-fun b.time__AT3 () Real)
(declare-fun b.counter.3__AT1 () Bool)
(declare-fun b.bool_atom__AT0 () Bool)
(declare-fun b.delta__AT3 () Real)
(declare-fun b.x__AT0 () Real)
(declare-fun b.EVENT.0__AT3 () Bool)
(declare-fun b.counter.0__AT2 () Bool)
(declare-fun b.delta__AT1 () Real)
(declare-fun b.counter.1__AT2 () Bool)
(declare-fun b.speed_y__AT1 () Real)
(declare-fun b.time__AT1 () Real)
(declare-fun b.EVENT.0__AT1 () Bool)
(declare-fun b.counter.2__AT2 () Bool)
(declare-fun b.event_is_timed__AT3 () Bool)
(declare-fun b.time__AT0 () Real)
(declare-fun b.EVENT.1__AT1 () Bool)
(declare-fun b.counter.3__AT2 () Bool)
(declare-fun b.delta__AT0 () Real)
(declare-fun b.EVENT.1__AT0 () Bool)
(assert (let ((.def_76 (* (- 1.0) b.g__AT0)))
(let ((.def_79 (* (/ 1 2) .def_76)))
(let ((.def_91 (* 2.0 .def_79)))
(let ((.def_135 (* (- 1.0) .def_91)))
(let ((.def_848 (* .def_135 b.delta__AT3)))
(let ((.def_851 (<= .def_848 b.speed_y__AT3)))
(let ((.def_858 (not .def_851)))
(let ((.def_811 (<= 0.0 b.speed_y__AT3)))
(let ((.def_859 (or .def_811 .def_858)))
(let ((.def_849 (<= b.speed_y__AT3 .def_848)))
(let ((.def_825 (<= b.speed_y__AT3 0.0 )))
(let ((.def_826 (not .def_825)))
(let ((.def_857 (or .def_826 .def_849)))
(let ((.def_860 (and .def_857 .def_859)))
(let ((.def_126 (<= b.g__AT0 0.0 )))
(let ((.def_861 (or .def_126 .def_860)))
(let ((.def_853 (not .def_849)))
(let ((.def_854 (or .def_825 .def_853)))
(let ((.def_812 (not .def_811)))
(let ((.def_852 (or .def_812 .def_851)))
(let ((.def_855 (and .def_852 .def_854)))
(let ((.def_131 (<= 0.0 b.g__AT0)))
(let ((.def_856 (or .def_131 .def_855)))
(let ((.def_862 (and .def_856 .def_861)))
(let ((.def_850 (and .def_825 .def_849)))
(let ((.def_863 (and .def_850 .def_862)))
(let ((.def_807 (* .def_91 b.delta__AT3)))
(let ((.def_808 (+ b.speed_y__AT3 .def_807)))
(let ((.def_823 (<= .def_808 0.0 )))
(let ((.def_824 (not .def_823)))
(let ((.def_843 (or .def_824 .def_825)))
(let ((.def_809 (<= 0.0 .def_808)))
(let ((.def_842 (or .def_809 .def_812)))
(let ((.def_844 (and .def_842 .def_843)))
(let ((.def_845 (or .def_131 .def_844)))
(let ((.def_810 (not .def_809)))
(let ((.def_839 (or .def_810 .def_811)))
(let ((.def_838 (or .def_823 .def_826)))
(let ((.def_840 (and .def_838 .def_839)))
(let ((.def_841 (or .def_126 .def_840)))
(let ((.def_846 (and .def_841 .def_845)))
(let ((.def_837 (and .def_809 .def_811)))
(let ((.def_847 (and .def_837 .def_846)))
(let ((.def_864 (or .def_847 .def_863)))
(let ((.def_798 (* b.speed_y__AT3 b.delta__AT3)))
(let ((.def_796 (* b.delta__AT3 b.delta__AT3)))
(let ((.def_797 (* .def_79 .def_796)))
(let ((.def_799 (+ .def_797 .def_798)))
(let ((.def_776 (* (- 1.0) b.x__AT3)))
(let ((.def_777 (* b.x__AT3 .def_776)))
(let ((.def_800 (* (- 1.0) .def_777)))
(let ((.def_803 (+ .def_800 .def_799)))
(let ((.def_804 (+ b.y__AT3 .def_803)))
(let ((.def_817 (<= .def_804 0.0 )))
(let ((.def_831 (not .def_817)))
(let ((.def_815 (<= b.y__AT3 .def_777)))
(let ((.def_832 (or .def_815 .def_831)))
(let ((.def_778 (<= .def_777 b.y__AT3)))
(let ((.def_829 (not .def_778)))
(let ((.def_805 (<= 0.0 .def_804)))
(let ((.def_830 (or .def_805 .def_829)))
(let ((.def_833 (and .def_830 .def_832)))
(let ((.def_827 (or .def_824 .def_826)))
(let ((.def_828 (not .def_827)))
(let ((.def_834 (or .def_828 .def_833)))
(let ((.def_819 (not .def_805)))
(let ((.def_820 (or .def_778 .def_819)))
(let ((.def_816 (not .def_815)))
(let ((.def_818 (or .def_816 .def_817)))
(let ((.def_821 (and .def_818 .def_820)))
(let ((.def_813 (or .def_810 .def_812)))
(let ((.def_814 (not .def_813)))
(let ((.def_822 (or .def_814 .def_821)))
(let ((.def_835 (and .def_822 .def_834)))
(let ((.def_806 (and .def_778 .def_805)))
(let ((.def_836 (and .def_806 .def_835)))
(let ((.def_865 (and .def_836 .def_864)))
(let ((.def_68 (<= b.g__AT0 10.0 )))
(let ((.def_67 (<= 8.0 b.g__AT0)))
(let ((.def_69 (and .def_67 .def_68)))
(let ((.def_866 (and .def_69 .def_865)))
(let ((.def_461 (not b.counter.0__AT2)))
(let ((.def_788 (or b.counter.1__AT2 .def_461)))
(let ((.def_789 (or b.counter.2__AT2 .def_788)))
(let ((.def_451 (not b.counter.1__AT2)))
(let ((.def_783 (and .def_451 .def_461)))
(let ((.def_456 (not b.counter.2__AT2)))
(let ((.def_787 (or .def_456 .def_783)))
(let ((.def_790 (and .def_787 .def_789)))
(let ((.def_791 (or b.counter.3__AT2 .def_790)))
(let ((.def_784 (or b.counter.2__AT2 .def_783)))
(let ((.def_782 (or .def_451 .def_456)))
(let ((.def_785 (and .def_782 .def_784)))
(let ((.def_470 (not b.counter.3__AT2)))
(let ((.def_786 (or .def_470 .def_785)))
(let ((.def_792 (and .def_786 .def_791)))
(let ((.def_779 (and .def_69 .def_778)))
(let ((.def_773 (not b.EVENT.0__AT3)))
(let ((.def_771 (not b.EVENT.1__AT3)))
(let ((.def_774 (or .def_771 .def_773)))
(let ((.def_9 (not b.counter.0__AT3)))
(let ((.def_6 (not b.counter.1__AT3)))
(let ((.def_764 (or .def_6 .def_9)))
(let ((.def_768 (or b.counter.3__AT3 .def_764)))
(let ((.def_765 (or b.counter.2__AT3 .def_764)))
(let ((.def_4 (not b.counter.2__AT3)))
(let ((.def_763 (or .def_4 .def_9)))
(let ((.def_766 (and .def_763 .def_765)))
(let ((.def_14 (not b.counter.3__AT3)))
(let ((.def_767 (or .def_14 .def_766)))
(let ((.def_769 (and .def_767 .def_768)))
(let ((.def_775 (and .def_769 .def_774)))
(let ((.def_780 (and .def_775 .def_779)))
(let ((.def_758 (<= 0.0 b.delta__AT2)))
(let ((.def_541 (not b.EVENT.0__AT2)))
(let ((.def_539 (not b.EVENT.1__AT2)))
(let ((.def_636 (and .def_539 .def_541)))
(let ((.def_638 (not .def_636)))
(let ((.def_759 (or .def_638 .def_758)))
(let ((.def_760 (or b.EVENT.1__AT2 .def_759)))
(let ((.def_673 (= b.bool_atom__AT2 b.bool_atom__AT3)))
(let ((.def_669 (= b.counter.0__AT3 b.counter.0__AT2)))
(let ((.def_667 (= b.counter.1__AT3 b.counter.1__AT2)))
(let ((.def_665 (= b.counter.2__AT3 b.counter.2__AT2)))
(let ((.def_664 (= b.counter.3__AT3 b.counter.3__AT2)))
(let ((.def_666 (and .def_664 .def_665)))
(let ((.def_668 (and .def_666 .def_667)))
(let ((.def_670 (and .def_668 .def_669)))
(let ((.def_754 (and .def_670 .def_673)))
(let ((.def_755 (or .def_638 .def_754)))
(let ((.def_756 (or b.EVENT.1__AT2 .def_755)))
(let ((.def_743 (* .def_76 b.delta__AT2)))
(let ((.def_744 (* (- 1.0) b.speed_y__AT3)))
(let ((.def_747 (+ .def_744 .def_743)))
(let ((.def_748 (+ b.speed_y__AT2 .def_747)))
(let ((.def_749 (= .def_748 0.0 )))
(let ((.def_734 (* (- 1.0) b.y__AT3)))
(let ((.def_566 (* b.speed_y__AT2 b.delta__AT2)))
(let ((.def_738 (+ .def_566 .def_734)))
(let ((.def_564 (* b.delta__AT2 b.delta__AT2)))
(let ((.def_565 (* .def_79 .def_564)))
(let ((.def_739 (+ .def_565 .def_738)))
(let ((.def_740 (+ b.y__AT2 .def_739)))
(let ((.def_741 (= .def_740 0.0 )))
(let ((.def_656 (= b.x__AT2 b.x__AT3)))
(let ((.def_742 (and .def_656 .def_741)))
(let ((.def_750 (and .def_742 .def_749)))
(let ((.def_751 (or .def_638 .def_750)))
(let ((.def_659 (= b.y__AT2 b.y__AT3)))
(let ((.def_729 (and .def_656 .def_659)))
(let ((.def_662 (= b.speed_y__AT2 b.speed_y__AT3)))
(let ((.def_730 (and .def_662 .def_729)))
(let ((.def_726 (= b.delta__AT2 0.0 )))
(let ((.def_727 (and .def_636 .def_726)))
(let ((.def_728 (not .def_727)))
(let ((.def_731 (or .def_728 .def_730)))
(let ((.def_732 (or b.EVENT.1__AT2 .def_731)))
(let ((.def_719 (and .def_662 .def_670)))
(let ((.def_720 (or b.bool_atom__AT2 .def_719)))
(let ((.def_695 (or .def_9 b.counter.0__AT2)))
(let ((.def_694 (or b.counter.0__AT3 .def_461)))
(let ((.def_696 (and .def_694 .def_695)))
(let ((.def_697 (and .def_6 .def_696)))
(let ((.def_698 (or b.counter.1__AT2 .def_697)))
(let ((.def_693 (or b.counter.1__AT3 .def_451)))
(let ((.def_699 (and .def_693 .def_698)))
(let ((.def_710 (and .def_4 .def_699)))
(let ((.def_711 (or b.counter.2__AT2 .def_710)))
(let ((.def_705 (and .def_6 .def_461)))
(let ((.def_706 (or b.counter.1__AT2 .def_705)))
(let ((.def_707 (and .def_693 .def_706)))
(let ((.def_708 (and b.counter.2__AT3 .def_707)))
(let ((.def_709 (or .def_456 .def_708)))
(let ((.def_712 (and .def_709 .def_711)))
(let ((.def_713 (and b.counter.3__AT3 .def_712)))
(let ((.def_714 (or b.counter.3__AT2 .def_713)))
(let ((.def_700 (and b.counter.2__AT3 .def_699)))
(let ((.def_701 (or b.counter.2__AT2 .def_700)))
(let ((.def_689 (or b.counter.1__AT3 b.counter.1__AT2)))
(let ((.def_687 (and .def_6 b.counter.0__AT3)))
(let ((.def_688 (or .def_451 .def_687)))
(let ((.def_690 (and .def_688 .def_689)))
(let ((.def_691 (and .def_4 .def_690)))
(let ((.def_692 (or .def_456 .def_691)))
(let ((.def_702 (and .def_692 .def_701)))
(let ((.def_703 (and .def_14 .def_702)))
(let ((.def_704 (or .def_470 .def_703)))
(let ((.def_715 (and .def_704 .def_714)))
(let ((.def_684 (* b.speed_y__AT3 b.speed_y__AT3)))
(let ((.def_448 (* b.speed_y__AT2 b.speed_y__AT2)))
(let ((.def_685 (= .def_448 .def_684)))
(let ((.def_682 (+ b.speed_y__AT2 b.speed_y__AT3)))
(let ((.def_683 (= .def_682 0.0 )))
(let ((.def_686 (and .def_683 .def_685)))
(let ((.def_716 (and .def_686 .def_715)))
(let ((.def_681 (not b.bool_atom__AT2)))
(let ((.def_717 (or .def_681 .def_716)))
(let ((.def_544 (* (- 1.0) b.x__AT2)))
(let ((.def_545 (* b.x__AT2 .def_544)))
(let ((.def_678 (= b.y__AT2 .def_545)))
(let ((.def_579 (<= 0.0 b.speed_y__AT2)))
(let ((.def_580 (not .def_579)))
(let ((.def_679 (and .def_580 .def_678)))
(let ((.def_680 (= b.bool_atom__AT2 .def_679)))
(let ((.def_718 (and .def_680 .def_717)))
(let ((.def_721 (and .def_718 .def_720)))
(let ((.def_722 (and .def_656 .def_721)))
(let ((.def_723 (and .def_659 .def_722)))
(let ((.def_724 (or .def_636 .def_723)))
(let ((.def_725 (or b.EVENT.1__AT2 .def_724)))
(let ((.def_733 (and .def_725 .def_732)))
(let ((.def_752 (and .def_733 .def_751)))
(let ((.def_643 (= b.time__AT2 b.time__AT3)))
(let ((.def_657 (and .def_643 .def_656)))
(let ((.def_660 (and .def_657 .def_659)))
(let ((.def_663 (and .def_660 .def_662)))
(let ((.def_671 (and .def_663 .def_670)))
(let ((.def_674 (and .def_671 .def_673)))
(let ((.def_675 (or .def_539 .def_674)))
(let ((.def_646 (* (- 1.0) b.time__AT3)))
(let ((.def_649 (+ b.delta__AT2 .def_646)))
(let ((.def_650 (+ b.time__AT2 .def_649)))
(let ((.def_651 (= .def_650 0.0 )))
(let ((.def_652 (or .def_638 .def_651)))
(let ((.def_653 (or b.EVENT.1__AT2 .def_652)))
(let ((.def_644 (or .def_636 .def_643)))
(let ((.def_645 (or b.EVENT.1__AT2 .def_644)))
(let ((.def_654 (and .def_645 .def_653)))
(let ((.def_676 (and .def_654 .def_675)))
(let ((.def_640 (= .def_638 b.event_is_timed__AT3)))
(let ((.def_637 (= b.event_is_timed__AT2 .def_636)))
(let ((.def_641 (and .def_637 .def_640)))
(let ((.def_677 (and .def_641 .def_676)))
(let ((.def_753 (and .def_677 .def_752)))
(let ((.def_757 (and .def_753 .def_756)))
(let ((.def_761 (and .def_757 .def_760)))
(let ((.def_762 (and .def_539 .def_761)))
(let ((.def_781 (and .def_762 .def_780)))
(let ((.def_793 (and .def_781 .def_792)))
(let ((.def_616 (* .def_135 b.delta__AT2)))
(let ((.def_619 (<= .def_616 b.speed_y__AT2)))
(let ((.def_626 (not .def_619)))
(let ((.def_627 (or .def_579 .def_626)))
(let ((.def_617 (<= b.speed_y__AT2 .def_616)))
(let ((.def_593 (<= b.speed_y__AT2 0.0 )))
(let ((.def_594 (not .def_593)))
(let ((.def_625 (or .def_594 .def_617)))
(let ((.def_628 (and .def_625 .def_627)))
(let ((.def_629 (or .def_126 .def_628)))
(let ((.def_621 (not .def_617)))
(let ((.def_622 (or .def_593 .def_621)))
(let ((.def_620 (or .def_580 .def_619)))
(let ((.def_623 (and .def_620 .def_622)))
(let ((.def_624 (or .def_131 .def_623)))
(let ((.def_630 (and .def_624 .def_629)))
(let ((.def_618 (and .def_593 .def_617)))
(let ((.def_631 (and .def_618 .def_630)))
(let ((.def_575 (* .def_91 b.delta__AT2)))
(let ((.def_576 (+ b.speed_y__AT2 .def_575)))
(let ((.def_591 (<= .def_576 0.0 )))
(let ((.def_592 (not .def_591)))
(let ((.def_611 (or .def_592 .def_593)))
(let ((.def_577 (<= 0.0 .def_576)))
(let ((.def_610 (or .def_577 .def_580)))
(let ((.def_612 (and .def_610 .def_611)))
(let ((.def_613 (or .def_131 .def_612)))
(let ((.def_578 (not .def_577)))
(let ((.def_607 (or .def_578 .def_579)))
(let ((.def_606 (or .def_591 .def_594)))
(let ((.def_608 (and .def_606 .def_607)))
(let ((.def_609 (or .def_126 .def_608)))
(let ((.def_614 (and .def_609 .def_613)))
(let ((.def_605 (and .def_577 .def_579)))
(let ((.def_615 (and .def_605 .def_614)))
(let ((.def_632 (or .def_615 .def_631)))
(let ((.def_567 (+ .def_565 .def_566)))
(let ((.def_568 (* (- 1.0) .def_545)))
(let ((.def_571 (+ .def_568 .def_567)))
(let ((.def_572 (+ b.y__AT2 .def_571)))
(let ((.def_585 (<= .def_572 0.0 )))
(let ((.def_599 (not .def_585)))
(let ((.def_583 (<= b.y__AT2 .def_545)))
(let ((.def_600 (or .def_583 .def_599)))
(let ((.def_546 (<= .def_545 b.y__AT2)))
(let ((.def_597 (not .def_546)))
(let ((.def_573 (<= 0.0 .def_572)))
(let ((.def_598 (or .def_573 .def_597)))
(let ((.def_601 (and .def_598 .def_600)))
(let ((.def_595 (or .def_592 .def_594)))
(let ((.def_596 (not .def_595)))
(let ((.def_602 (or .def_596 .def_601)))
(let ((.def_587 (not .def_573)))
(let ((.def_588 (or .def_546 .def_587)))
(let ((.def_584 (not .def_583)))
(let ((.def_586 (or .def_584 .def_585)))
(let ((.def_589 (and .def_586 .def_588)))
(let ((.def_581 (or .def_578 .def_580)))
(let ((.def_582 (not .def_581)))
(let ((.def_590 (or .def_582 .def_589)))
(let ((.def_603 (and .def_590 .def_602)))
(let ((.def_574 (and .def_546 .def_573)))
(let ((.def_604 (and .def_574 .def_603)))
(let ((.def_633 (and .def_604 .def_632)))
(let ((.def_634 (and .def_69 .def_633)))
(let ((.def_223 (not b.counter.0__AT1)))
(let ((.def_556 (or b.counter.1__AT1 .def_223)))
(let ((.def_557 (or b.counter.2__AT1 .def_556)))
(let ((.def_213 (not b.counter.1__AT1)))
(let ((.def_551 (and .def_213 .def_223)))
(let ((.def_218 (not b.counter.2__AT1)))
(let ((.def_555 (or .def_218 .def_551)))
(let ((.def_558 (and .def_555 .def_557)))
(let ((.def_559 (or b.counter.3__AT1 .def_558)))
(let ((.def_552 (or b.counter.2__AT1 .def_551)))
(let ((.def_550 (or .def_213 .def_218)))
(let ((.def_553 (and .def_550 .def_552)))
(let ((.def_232 (not b.counter.3__AT1)))
(let ((.def_554 (or .def_232 .def_553)))
(let ((.def_560 (and .def_554 .def_559)))
(let ((.def_547 (and .def_69 .def_546)))
(let ((.def_542 (or .def_539 .def_541)))
(let ((.def_532 (or .def_451 .def_461)))
(let ((.def_536 (or b.counter.3__AT2 .def_532)))
(let ((.def_533 (or b.counter.2__AT2 .def_532)))
(let ((.def_531 (or .def_456 .def_461)))
(let ((.def_534 (and .def_531 .def_533)))
(let ((.def_535 (or .def_470 .def_534)))
(let ((.def_537 (and .def_535 .def_536)))
(let ((.def_543 (and .def_537 .def_542)))
(let ((.def_548 (and .def_543 .def_547)))
(let ((.def_526 (<= 0.0 b.delta__AT1)))
(let ((.def_302 (not b.EVENT.0__AT1)))
(let ((.def_300 (not b.EVENT.1__AT1)))
(let ((.def_396 (and .def_300 .def_302)))
(let ((.def_398 (not .def_396)))
(let ((.def_527 (or .def_398 .def_526)))
(let ((.def_528 (or b.EVENT.1__AT1 .def_527)))
(let ((.def_437 (= b.bool_atom__AT1 b.bool_atom__AT2)))
(let ((.def_433 (= b.counter.0__AT1 b.counter.0__AT2)))
(let ((.def_430 (= b.counter.1__AT1 b.counter.1__AT2)))
(let ((.def_427 (= b.counter.2__AT1 b.counter.2__AT2)))
(let ((.def_425 (= b.counter.3__AT1 b.counter.3__AT2)))
(let ((.def_428 (and .def_425 .def_427)))
(let ((.def_431 (and .def_428 .def_430)))
(let ((.def_434 (and .def_431 .def_433)))
(let ((.def_522 (and .def_434 .def_437)))
(let ((.def_523 (or .def_398 .def_522)))
(let ((.def_524 (or b.EVENT.1__AT1 .def_523)))
(let ((.def_511 (* .def_76 b.delta__AT1)))
(let ((.def_512 (* (- 1.0) b.speed_y__AT2)))
(let ((.def_515 (+ .def_512 .def_511)))
(let ((.def_516 (+ b.speed_y__AT1 .def_515)))
(let ((.def_517 (= .def_516 0.0 )))
(let ((.def_502 (* (- 1.0) b.y__AT2)))
(let ((.def_326 (* b.speed_y__AT1 b.delta__AT1)))
(let ((.def_506 (+ .def_326 .def_502)))
(let ((.def_324 (* b.delta__AT1 b.delta__AT1)))
(let ((.def_325 (* .def_79 .def_324)))
(let ((.def_507 (+ .def_325 .def_506)))
(let ((.def_508 (+ b.y__AT1 .def_507)))
(let ((.def_509 (= .def_508 0.0 )))
(let ((.def_416 (= b.x__AT1 b.x__AT2)))
(let ((.def_510 (and .def_416 .def_509)))
(let ((.def_518 (and .def_510 .def_517)))
(let ((.def_519 (or .def_398 .def_518)))
(let ((.def_419 (= b.y__AT1 b.y__AT2)))
(let ((.def_497 (and .def_416 .def_419)))
(let ((.def_422 (= b.speed_y__AT1 b.speed_y__AT2)))
(let ((.def_498 (and .def_422 .def_497)))
(let ((.def_494 (= b.delta__AT1 0.0 )))
(let ((.def_495 (and .def_396 .def_494)))
(let ((.def_496 (not .def_495)))
(let ((.def_499 (or .def_496 .def_498)))
(let ((.def_500 (or b.EVENT.1__AT1 .def_499)))
(let ((.def_487 (and .def_422 .def_434)))
(let ((.def_488 (or b.bool_atom__AT1 .def_487)))
(let ((.def_462 (or b.counter.0__AT1 .def_461)))
(let ((.def_460 (or .def_223 b.counter.0__AT2)))
(let ((.def_463 (and .def_460 .def_462)))
(let ((.def_464 (and .def_451 .def_463)))
(let ((.def_465 (or b.counter.1__AT1 .def_464)))
(let ((.def_459 (or .def_213 b.counter.1__AT2)))
(let ((.def_466 (and .def_459 .def_465)))
(let ((.def_478 (and .def_456 .def_466)))
(let ((.def_479 (or b.counter.2__AT1 .def_478)))
(let ((.def_473 (and .def_223 .def_451)))
(let ((.def_474 (or b.counter.1__AT1 .def_473)))
(let ((.def_475 (and .def_459 .def_474)))
(let ((.def_476 (and b.counter.2__AT2 .def_475)))
(let ((.def_477 (or .def_218 .def_476)))
(let ((.def_480 (and .def_477 .def_479)))
(let ((.def_481 (and b.counter.3__AT2 .def_480)))
(let ((.def_482 (or b.counter.3__AT1 .def_481)))
(let ((.def_467 (and b.counter.2__AT2 .def_466)))
(let ((.def_468 (or b.counter.2__AT1 .def_467)))
(let ((.def_454 (or b.counter.1__AT1 b.counter.1__AT2)))
(let ((.def_452 (and b.counter.0__AT2 .def_451)))
(let ((.def_453 (or .def_213 .def_452)))
(let ((.def_455 (and .def_453 .def_454)))
(let ((.def_457 (and .def_455 .def_456)))
(let ((.def_458 (or .def_218 .def_457)))
(let ((.def_469 (and .def_458 .def_468)))
(let ((.def_471 (and .def_469 .def_470)))
(let ((.def_472 (or .def_232 .def_471)))
(let ((.def_483 (and .def_472 .def_482)))
(let ((.def_209 (* b.speed_y__AT1 b.speed_y__AT1)))
(let ((.def_449 (= .def_209 .def_448)))
(let ((.def_446 (+ b.speed_y__AT1 b.speed_y__AT2)))
(let ((.def_447 (= .def_446 0.0 )))
(let ((.def_450 (and .def_447 .def_449)))
(let ((.def_484 (and .def_450 .def_483)))
(let ((.def_445 (not b.bool_atom__AT1)))
(let ((.def_485 (or .def_445 .def_484)))
(let ((.def_305 (* (- 1.0) b.x__AT1)))
(let ((.def_306 (* b.x__AT1 .def_305)))
(let ((.def_442 (= b.y__AT1 .def_306)))
(let ((.def_339 (<= 0.0 b.speed_y__AT1)))
(let ((.def_340 (not .def_339)))
(let ((.def_443 (and .def_340 .def_442)))
(let ((.def_444 (= b.bool_atom__AT1 .def_443)))
(let ((.def_486 (and .def_444 .def_485)))
(let ((.def_489 (and .def_486 .def_488)))
(let ((.def_490 (and .def_416 .def_489)))
(let ((.def_491 (and .def_419 .def_490)))
(let ((.def_492 (or .def_396 .def_491)))
(let ((.def_493 (or b.EVENT.1__AT1 .def_492)))
(let ((.def_501 (and .def_493 .def_500)))
(let ((.def_520 (and .def_501 .def_519)))
(let ((.def_403 (= b.time__AT1 b.time__AT2)))
(let ((.def_417 (and .def_403 .def_416)))
(let ((.def_420 (and .def_417 .def_419)))
(let ((.def_423 (and .def_420 .def_422)))
(let ((.def_435 (and .def_423 .def_434)))
(let ((.def_438 (and .def_435 .def_437)))
(let ((.def_439 (or .def_300 .def_438)))
(let ((.def_406 (* (- 1.0) b.time__AT2)))
(let ((.def_409 (+ b.delta__AT1 .def_406)))
(let ((.def_410 (+ b.time__AT1 .def_409)))
(let ((.def_411 (= .def_410 0.0 )))
(let ((.def_412 (or .def_398 .def_411)))
(let ((.def_413 (or b.EVENT.1__AT1 .def_412)))
(let ((.def_404 (or .def_396 .def_403)))
(let ((.def_405 (or b.EVENT.1__AT1 .def_404)))
(let ((.def_414 (and .def_405 .def_413)))
(let ((.def_440 (and .def_414 .def_439)))
(let ((.def_400 (= .def_398 b.event_is_timed__AT2)))
(let ((.def_397 (= b.event_is_timed__AT1 .def_396)))
(let ((.def_401 (and .def_397 .def_400)))
(let ((.def_441 (and .def_401 .def_440)))
(let ((.def_521 (and .def_441 .def_520)))
(let ((.def_525 (and .def_521 .def_524)))
(let ((.def_529 (and .def_525 .def_528)))
(let ((.def_530 (and .def_300 .def_529)))
(let ((.def_549 (and .def_530 .def_548)))
(let ((.def_561 (and .def_549 .def_560)))
(let ((.def_376 (* .def_135 b.delta__AT1)))
(let ((.def_379 (<= .def_376 b.speed_y__AT1)))
(let ((.def_386 (not .def_379)))
(let ((.def_387 (or .def_339 .def_386)))
(let ((.def_377 (<= b.speed_y__AT1 .def_376)))
(let ((.def_353 (<= b.speed_y__AT1 0.0 )))
(let ((.def_354 (not .def_353)))
(let ((.def_385 (or .def_354 .def_377)))
(let ((.def_388 (and .def_385 .def_387)))
(let ((.def_389 (or .def_126 .def_388)))
(let ((.def_381 (not .def_377)))
(let ((.def_382 (or .def_353 .def_381)))
(let ((.def_380 (or .def_340 .def_379)))
(let ((.def_383 (and .def_380 .def_382)))
(let ((.def_384 (or .def_131 .def_383)))
(let ((.def_390 (and .def_384 .def_389)))
(let ((.def_378 (and .def_353 .def_377)))
(let ((.def_391 (and .def_378 .def_390)))
(let ((.def_335 (* .def_91 b.delta__AT1)))
(let ((.def_336 (+ b.speed_y__AT1 .def_335)))
(let ((.def_351 (<= .def_336 0.0 )))
(let ((.def_352 (not .def_351)))
(let ((.def_371 (or .def_352 .def_353)))
(let ((.def_337 (<= 0.0 .def_336)))
(let ((.def_370 (or .def_337 .def_340)))
(let ((.def_372 (and .def_370 .def_371)))
(let ((.def_373 (or .def_131 .def_372)))
(let ((.def_338 (not .def_337)))
(let ((.def_367 (or .def_338 .def_339)))
(let ((.def_366 (or .def_351 .def_354)))
(let ((.def_368 (and .def_366 .def_367)))
(let ((.def_369 (or .def_126 .def_368)))
(let ((.def_374 (and .def_369 .def_373)))
(let ((.def_365 (and .def_337 .def_339)))
(let ((.def_375 (and .def_365 .def_374)))
(let ((.def_392 (or .def_375 .def_391)))
(let ((.def_327 (+ .def_325 .def_326)))
(let ((.def_328 (* (- 1.0) .def_306)))
(let ((.def_331 (+ .def_328 .def_327)))
(let ((.def_332 (+ b.y__AT1 .def_331)))
(let ((.def_345 (<= .def_332 0.0 )))
(let ((.def_359 (not .def_345)))
(let ((.def_343 (<= b.y__AT1 .def_306)))
(let ((.def_360 (or .def_343 .def_359)))
(let ((.def_307 (<= .def_306 b.y__AT1)))
(let ((.def_357 (not .def_307)))
(let ((.def_333 (<= 0.0 .def_332)))
(let ((.def_358 (or .def_333 .def_357)))
(let ((.def_361 (and .def_358 .def_360)))
(let ((.def_355 (or .def_352 .def_354)))
(let ((.def_356 (not .def_355)))
(let ((.def_362 (or .def_356 .def_361)))
(let ((.def_347 (not .def_333)))
(let ((.def_348 (or .def_307 .def_347)))
(let ((.def_344 (not .def_343)))
(let ((.def_346 (or .def_344 .def_345)))
(let ((.def_349 (and .def_346 .def_348)))
(let ((.def_341 (or .def_338 .def_340)))
(let ((.def_342 (not .def_341)))
(let ((.def_350 (or .def_342 .def_349)))
(let ((.def_363 (and .def_350 .def_362)))
(let ((.def_334 (and .def_307 .def_333)))
(let ((.def_364 (and .def_334 .def_363)))
(let ((.def_393 (and .def_364 .def_392)))
(let ((.def_394 (and .def_69 .def_393)))
(let ((.def_38 (not b.counter.0__AT0)))
(let ((.def_316 (or b.counter.1__AT0 .def_38)))
(let ((.def_317 (or b.counter.2__AT0 .def_316)))
(let ((.def_41 (not b.counter.2__AT0)))
(let ((.def_36 (not b.counter.1__AT0)))
(let ((.def_39 (and .def_36 .def_38)))
(let ((.def_315 (or .def_39 .def_41)))
(let ((.def_318 (and .def_315 .def_317)))
(let ((.def_319 (or b.counter.3__AT0 .def_318)))
(let ((.def_312 (or .def_39 b.counter.2__AT0)))
(let ((.def_311 (or .def_36 .def_41)))
(let ((.def_313 (and .def_311 .def_312)))
(let ((.def_44 (not b.counter.3__AT0)))
(let ((.def_314 (or .def_44 .def_313)))
(let ((.def_320 (and .def_314 .def_319)))
(let ((.def_308 (and .def_69 .def_307)))
(let ((.def_303 (or .def_300 .def_302)))
(let ((.def_293 (or .def_213 .def_223)))
(let ((.def_297 (or b.counter.3__AT1 .def_293)))
(let ((.def_294 (or b.counter.2__AT1 .def_293)))
(let ((.def_292 (or .def_218 .def_223)))
(let ((.def_295 (and .def_292 .def_294)))
(let ((.def_296 (or .def_232 .def_295)))
(let ((.def_298 (and .def_296 .def_297)))
(let ((.def_304 (and .def_298 .def_303)))
(let ((.def_309 (and .def_304 .def_308)))
(let ((.def_287 (<= 0.0 b.delta__AT0)))
(let ((.def_57 (not b.EVENT.0__AT0)))
(let ((.def_55 (not b.EVENT.1__AT0)))
(let ((.def_156 (and .def_55 .def_57)))
(let ((.def_158 (not .def_156)))
(let ((.def_288 (or .def_158 .def_287)))
(let ((.def_289 (or b.EVENT.1__AT0 .def_288)))
(let ((.def_198 (= b.bool_atom__AT0 b.bool_atom__AT1)))
(let ((.def_193 (= b.counter.0__AT0 b.counter.0__AT1)))
(let ((.def_190 (= b.counter.1__AT0 b.counter.1__AT1)))
(let ((.def_187 (= b.counter.2__AT0 b.counter.2__AT1)))
(let ((.def_185 (= b.counter.3__AT0 b.counter.3__AT1)))
(let ((.def_188 (and .def_185 .def_187)))
(let ((.def_191 (and .def_188 .def_190)))
(let ((.def_194 (and .def_191 .def_193)))
(let ((.def_283 (and .def_194 .def_198)))
(let ((.def_284 (or .def_158 .def_283)))
(let ((.def_285 (or b.EVENT.1__AT0 .def_284)))
(let ((.def_272 (* b.delta__AT0 .def_76)))
(let ((.def_273 (* (- 1.0) b.speed_y__AT1)))
(let ((.def_276 (+ .def_273 .def_272)))
(let ((.def_277 (+ b.speed_y__AT0 .def_276)))
(let ((.def_278 (= .def_277 0.0 )))
(let ((.def_264 (* (- 1.0) b.y__AT1)))
(let ((.def_82 (* b.delta__AT0 b.speed_y__AT0)))
(let ((.def_267 (+ .def_82 .def_264)))
(let ((.def_75 (* b.delta__AT0 b.delta__AT0)))
(let ((.def_80 (* .def_75 .def_79)))
(let ((.def_268 (+ .def_80 .def_267)))
(let ((.def_269 (+ b.y__AT0 .def_268)))
(let ((.def_270 (= .def_269 0.0 )))
(let ((.def_176 (= b.x__AT0 b.x__AT1)))
(let ((.def_271 (and .def_176 .def_270)))
(let ((.def_279 (and .def_271 .def_278)))
(let ((.def_280 (or .def_158 .def_279)))
(let ((.def_179 (= b.y__AT0 b.y__AT1)))
(let ((.def_259 (and .def_176 .def_179)))
(let ((.def_182 (= b.speed_y__AT0 b.speed_y__AT1)))
(let ((.def_260 (and .def_182 .def_259)))
(let ((.def_256 (= b.delta__AT0 0.0 )))
(let ((.def_257 (and .def_156 .def_256)))
(let ((.def_258 (not .def_257)))
(let ((.def_261 (or .def_258 .def_260)))
(let ((.def_262 (or b.EVENT.1__AT0 .def_261)))
(let ((.def_249 (and .def_182 .def_194)))
(let ((.def_250 (or b.bool_atom__AT0 .def_249)))
(let ((.def_224 (or b.counter.0__AT0 .def_223)))
(let ((.def_222 (or .def_38 b.counter.0__AT1)))
(let ((.def_225 (and .def_222 .def_224)))
(let ((.def_226 (and .def_213 .def_225)))
(let ((.def_227 (or b.counter.1__AT0 .def_226)))
(let ((.def_221 (or .def_36 b.counter.1__AT1)))
(let ((.def_228 (and .def_221 .def_227)))
(let ((.def_240 (and .def_218 .def_228)))
(let ((.def_241 (or b.counter.2__AT0 .def_240)))
(let ((.def_235 (and .def_38 .def_213)))
(let ((.def_236 (or b.counter.1__AT0 .def_235)))
(let ((.def_237 (and .def_221 .def_236)))
(let ((.def_238 (and b.counter.2__AT1 .def_237)))
(let ((.def_239 (or .def_41 .def_238)))
(let ((.def_242 (and .def_239 .def_241)))
(let ((.def_243 (and b.counter.3__AT1 .def_242)))
(let ((.def_244 (or b.counter.3__AT0 .def_243)))
(let ((.def_229 (and b.counter.2__AT1 .def_228)))
(let ((.def_230 (or b.counter.2__AT0 .def_229)))
(let ((.def_216 (or b.counter.1__AT0 b.counter.1__AT1)))
(let ((.def_214 (and b.counter.0__AT1 .def_213)))
(let ((.def_215 (or .def_36 .def_214)))
(let ((.def_217 (and .def_215 .def_216)))
(let ((.def_219 (and .def_217 .def_218)))
(let ((.def_220 (or .def_41 .def_219)))
(let ((.def_231 (and .def_220 .def_230)))
(let ((.def_233 (and .def_231 .def_232)))
(let ((.def_234 (or .def_44 .def_233)))
(let ((.def_245 (and .def_234 .def_244)))
(let ((.def_210 (* b.speed_y__AT0 b.speed_y__AT0)))
(let ((.def_211 (= .def_209 .def_210)))
(let ((.def_207 (+ b.speed_y__AT0 b.speed_y__AT1)))
(let ((.def_208 (= .def_207 0.0 )))
(let ((.def_212 (and .def_208 .def_211)))
(let ((.def_246 (and .def_212 .def_245)))
(let ((.def_206 (not b.bool_atom__AT0)))
(let ((.def_247 (or .def_206 .def_246)))
(let ((.def_62 (* (- 1.0) b.x__AT0)))
(let ((.def_63 (* b.x__AT0 .def_62)))
(let ((.def_203 (= b.y__AT0 .def_63)))
(let ((.def_96 (<= 0.0 b.speed_y__AT0)))
(let ((.def_97 (not .def_96)))
(let ((.def_204 (and .def_97 .def_203)))
(let ((.def_205 (= b.bool_atom__AT0 .def_204)))
(let ((.def_248 (and .def_205 .def_247)))
(let ((.def_251 (and .def_248 .def_250)))
(let ((.def_252 (and .def_176 .def_251)))
(let ((.def_253 (and .def_179 .def_252)))
(let ((.def_254 (or .def_156 .def_253)))
(let ((.def_255 (or b.EVENT.1__AT0 .def_254)))
(let ((.def_263 (and .def_255 .def_262)))
(let ((.def_281 (and .def_263 .def_280)))
(let ((.def_163 (= b.time__AT0 b.time__AT1)))
(let ((.def_177 (and .def_163 .def_176)))
(let ((.def_180 (and .def_177 .def_179)))
(let ((.def_183 (and .def_180 .def_182)))
(let ((.def_195 (and .def_183 .def_194)))
(let ((.def_199 (and .def_195 .def_198)))
(let ((.def_200 (or .def_55 .def_199)))
(let ((.def_166 (* (- 1.0) b.time__AT1)))
(let ((.def_169 (+ b.delta__AT0 .def_166)))
(let ((.def_170 (+ b.time__AT0 .def_169)))
(let ((.def_171 (= .def_170 0.0 )))
(let ((.def_172 (or .def_158 .def_171)))
(let ((.def_173 (or b.EVENT.1__AT0 .def_172)))
(let ((.def_164 (or .def_156 .def_163)))
(let ((.def_165 (or b.EVENT.1__AT0 .def_164)))
(let ((.def_174 (and .def_165 .def_173)))
(let ((.def_201 (and .def_174 .def_200)))
(let ((.def_160 (= .def_158 b.event_is_timed__AT1)))
(let ((.def_157 (= b.event_is_timed__AT0 .def_156)))
(let ((.def_161 (and .def_157 .def_160)))
(let ((.def_202 (and .def_161 .def_201)))
(let ((.def_282 (and .def_202 .def_281)))
(let ((.def_286 (and .def_282 .def_285)))
(let ((.def_290 (and .def_286 .def_289)))
(let ((.def_291 (and .def_55 .def_290)))
(let ((.def_310 (and .def_291 .def_309)))
(let ((.def_321 (and .def_310 .def_320)))
(let ((.def_136 (* b.delta__AT0 .def_135)))
(let ((.def_139 (<= .def_136 b.speed_y__AT0)))
(let ((.def_146 (not .def_139)))
(let ((.def_147 (or .def_96 .def_146)))
(let ((.def_137 (<= b.speed_y__AT0 .def_136)))
(let ((.def_110 (<= b.speed_y__AT0 0.0 )))
(let ((.def_111 (not .def_110)))
(let ((.def_145 (or .def_111 .def_137)))
(let ((.def_148 (and .def_145 .def_147)))
(let ((.def_149 (or .def_126 .def_148)))
(let ((.def_141 (not .def_137)))
(let ((.def_142 (or .def_110 .def_141)))
(let ((.def_140 (or .def_97 .def_139)))
(let ((.def_143 (and .def_140 .def_142)))
(let ((.def_144 (or .def_131 .def_143)))
(let ((.def_150 (and .def_144 .def_149)))
(let ((.def_138 (and .def_110 .def_137)))
(let ((.def_151 (and .def_138 .def_150)))
(let ((.def_92 (* b.delta__AT0 .def_91)))
(let ((.def_93 (+ b.speed_y__AT0 .def_92)))
(let ((.def_108 (<= .def_93 0.0 )))
(let ((.def_109 (not .def_108)))
(let ((.def_129 (or .def_109 .def_110)))
(let ((.def_94 (<= 0.0 .def_93)))
(let ((.def_128 (or .def_94 .def_97)))
(let ((.def_130 (and .def_128 .def_129)))
(let ((.def_132 (or .def_130 .def_131)))
(let ((.def_95 (not .def_94)))
(let ((.def_124 (or .def_95 .def_96)))
(let ((.def_123 (or .def_108 .def_111)))
(let ((.def_125 (and .def_123 .def_124)))
(let ((.def_127 (or .def_125 .def_126)))
(let ((.def_133 (and .def_127 .def_132)))
(let ((.def_122 (and .def_94 .def_96)))
(let ((.def_134 (and .def_122 .def_133)))
(let ((.def_152 (or .def_134 .def_151)))
(let ((.def_83 (+ .def_80 .def_82)))
(let ((.def_84 (* (- 1.0) .def_63)))
(let ((.def_87 (+ .def_84 .def_83)))
(let ((.def_88 (+ b.y__AT0 .def_87)))
(let ((.def_102 (<= .def_88 0.0 )))
(let ((.def_116 (not .def_102)))
(let ((.def_100 (<= b.y__AT0 .def_63)))
(let ((.def_117 (or .def_100 .def_116)))
(let ((.def_64 (<= .def_63 b.y__AT0)))
(let ((.def_114 (not .def_64)))
(let ((.def_89 (<= 0.0 .def_88)))
(let ((.def_115 (or .def_89 .def_114)))
(let ((.def_118 (and .def_115 .def_117)))
(let ((.def_112 (or .def_109 .def_111)))
(let ((.def_113 (not .def_112)))
(let ((.def_119 (or .def_113 .def_118)))
(let ((.def_104 (not .def_89)))
(let ((.def_105 (or .def_64 .def_104)))
(let ((.def_101 (not .def_100)))
(let ((.def_103 (or .def_101 .def_102)))
(let ((.def_106 (and .def_103 .def_105)))
(let ((.def_98 (or .def_95 .def_97)))
(let ((.def_99 (not .def_98)))
(let ((.def_107 (or .def_99 .def_106)))
(let ((.def_120 (and .def_107 .def_119)))
(let ((.def_90 (and .def_64 .def_89)))
(let ((.def_121 (and .def_90 .def_120)))
(let ((.def_153 (and .def_121 .def_152)))
(let ((.def_154 (and .def_69 .def_153)))
(let ((.def_70 (and .def_64 .def_69)))
(let ((.def_58 (or .def_55 .def_57)))
(let ((.def_48 (or .def_36 .def_38)))
(let ((.def_52 (or b.counter.3__AT0 .def_48)))
(let ((.def_49 (or b.counter.2__AT0 .def_48)))
(let ((.def_47 (or .def_38 .def_41)))
(let ((.def_50 (and .def_47 .def_49)))
(let ((.def_51 (or .def_44 .def_50)))
(let ((.def_53 (and .def_51 .def_52)))
(let ((.def_59 (and .def_53 .def_58)))
(let ((.def_71 (and .def_59 .def_70)))
(let ((.def_42 (and .def_39 .def_41)))
(let ((.def_45 (and .def_42 .def_44)))
(let ((.def_33 (= b.y__AT0 10.0 )))
(let ((.def_29 (= b.x__AT0 0.0 )))
(let ((.def_25 (= b.time__AT0 0.0 )))
(let ((.def_27 (and .def_25 b.event_is_timed__AT0)))
(let ((.def_30 (and .def_27 .def_29)))
(let ((.def_34 (and .def_30 .def_33)))
(let ((.def_46 (and .def_34 .def_45)))
(let ((.def_72 (and .def_46 .def_71)))
(let ((.def_17 (or b.counter.1__AT3 .def_9)))
(let ((.def_18 (or b.counter.2__AT3 .def_17)))
(let ((.def_10 (and .def_6 .def_9)))
(let ((.def_16 (or .def_4 .def_10)))
(let ((.def_19 (and .def_16 .def_18)))
(let ((.def_20 (or b.counter.3__AT3 .def_19)))
(let ((.def_11 (or b.counter.2__AT3 .def_10)))
(let ((.def_7 (or .def_4 .def_6)))
(let ((.def_12 (and .def_7 .def_11)))
(let ((.def_15 (or .def_12 .def_14)))
(let ((.def_21 (and .def_15 .def_20)))
(let ((.def_22 (not .def_21)))
(let ((.def_73 (and .def_22 .def_72)))
(let ((.def_155 (and .def_73 .def_154)))
(let ((.def_322 (and .def_155 .def_321)))
(let ((.def_395 (and .def_322 .def_394)))
(let ((.def_562 (and .def_395 .def_561)))
(let ((.def_635 (and .def_562 .def_634)))
(let ((.def_794 (and .def_635 .def_793)))
(let ((.def_867 (and .def_794 .def_866)))
.def_867))))))))))))))))))))))))))))))))))))))))))))))))))))))))))))))))))))))))))))))))))))))))))))))))))))))))))))))))))))))))))))))))))))))))))))))))))))))))))))))))))))))))))))))))))))))))))))))))))))))))))))))))))))))))))))))))))))))))))))))))))))))))))))))))))))))))))))))))))))))))))))))))))))))))))))))))))))))))))))))))))))))))))))))))))))))))))))))))))))))))))))))))))))))))))))))))))))))))))))))))))))))))))))))))))))))))))))))))))))))))))))))))))))))))))))))))))))))))))))))))))))))))))))))))))))))))))))))))))))))))))))))))))))))))))))))))))))))))))))))))))))))))))))))))))))))))))))))))))))))))))))))))))))))))))))))))))))))))))))))))))))))))))))))))))))))))))))))))))))))))))))))))))))))))))))))))))))))))))))))))))))))))))))))))))))))))))))))))))))))))))))))))))))))))))
(check-sat)
(exit)
